<number of tasks>
50

<cycle time>
1000

<order strength>
0.598


<task times>
1 558
2 508
3 355
4 773
5 529
6 513
7 408
8 532
9 665
10 531
11 464
12 587
13 441
14 627
15 197
16 675
17 443
18 361
19 709
20 508
21 263
22 522
23 464
24 528
25 560
26 505
27 421
28 457
29 642
30 444
31 520
32 578
33 580
34 480
35 654
36 455
37 471
38 366
39 516
40 399
41 714
42 395
43 539
44 350
45 719
46 367
47 482
48 531
49 436
50 510

<precedence relations>
1,4
2,4
2,5
2,7
3,6
3,21
4,11
4,15
4,27
5,10
6,8
6,9
7,8
7,9
7,10
8,13
8,29
9,14
9,16
9,25
10,15
11,12
12,16
12,17
13,16
14,18
14,19
15,17
16,22
17,20
17,21
17,22
18,22
19,20
19,23
20,24
20,28
21,25
21,29
22,26
22,30
23,27
23,29
24,31
24,32
26,32
26,34
27,43
27,44
28,44
29,46
30,33
30,45
31,35
32,37
32,38
32,40
33,36
33,37
33,40
33,44
34,35
34,39
34,43
36,42
38,44
39,45
39,46
40,41
40,43
41,50
42,48
43,47
43,49
44,50

<end>
